# SCIP version 4.0.0.2

# should Benders' decomposition be used?
# [type: bool, advanced: FALSE, range: {TRUE,FALSE}, default: FALSE]
reading/storeader/usebenders = TRUE

# Should Benders' decomposition be used in LNS heurisics?
# [type: bool, advanced: FALSE, range: {TRUE,FALSE}, default: TRUE]
benders/default/lnscheck = FALSE
